benchmarks_CP/INST_36x36/30/inst36x36_30_29.dzn
S=6;
start=[|
-1,	-1,	-1,	-1,	-1,	-1,	-1,	27,	-1,	-1,	10,	-1,	14,	34,	28,	2,	8,	-1,	30,	33,	-1,	-1,	-1,	-1,	18,	-1,	17,	-1,	22,	-1,	7,	-1,	16,	21,	-1,	3|
-1,	-1,	16,	-1,	-1,	-1,	-1,	18,	-1,	-1,	32,	-1,	10,	-1,	-1,	-1,	6,	-1,	24,	20,	-1,	19,	-1,	-1,	-1,	-1,	-1,	7,	25,	-1,	-1,	-1,	-1,	-1,	-1,	35|
-1,	-1,	-1,	-1,	-1,	-1,	15,	34,	-1,	-1,	-1,	14,	-1,	-1,	24,	-1,	-1,	-1,	-1,	-1,	-1,	-1,	-1,	-1,	-1,	-1,	-1,	-1,	-1,	21,	-1,	-1,	-1,	-1,	17,	-1|
-1,	-1,	-1,	21,	-1,	-1,	-1,	-1,	16,	36,	19,	12,	31,	-1,	5,	-1,	29,	-1,	-1,	-1,	10,	7,	-1,	-1,	-1,	-1,	-1,	34,	-1,	2,	25,	18,	11,	14,	13,	-1|
-1,	22,	-1,	-1,	-1,	-1,	-1,	-1,	-1,	21,	-1,	-1,	-1,	-1,	-1,	-1,	-1,	-1,	-1,	-1,	15,	-1,	-1,	-1,	-1,	-1,	30,	-1,	-1,	-1,	8,	-1,	-1,	-1,	-1,	-1|
-1,	-1,	-1,	18,	-1,	-1,	-1,	-1,	-1,	-1,	33,	-1,	-1,	-1,	-1,	-1,	-1,	-1,	3,	-1,	-1,	34,	-1,	-1,	27,	-1,	6,	36,	19,	-1,	-1,	-1,	12,	-1,	20,	-1|
29,	11,	-1,	14,	-1,	-1,	-1,	-1,	-1,	-1,	4,	-1,	-1,	18,	22,	-1,	36,	-1,	-1,	-1,	-1,	-1,	-1,	5,	-1,	-1,	-1,	-1,	-1,	-1,	-1,	-1,	2,	-1,	-1,	-1|
-1,	20,	-1,	-1,	-1,	-1,	-1,	-1,	-1,	-1,	-1,	-1,	-1,	-1,	-1,	-1,	-1,	7,	-1,	29,	-1,	-1,	-1,	-1,	-1,	-1,	9,	13,	-1,	-1,	-1,	-1,	24,	-1,	28,	10|
-1,	-1,	2,	35,	22,	21,	-1,	-1,	-1,	8,	-1,	13,	34,	-1,	-1,	-1,	4,	9,	-1,	-1,	-1,	3,	-1,	-1,	-1,	-1,	-1,	6,	-1,	-1,	-1,	-1,	33,	-1,	-1,	31|
-1,	-1,	-1,	-1,	28,	-1,	-1,	-1,	-1,	-1,	-1,	18,	5,	-1,	16,	1,	-1,	-1,	13,	-1,	-1,	-1,	-1,	17,	-1,	19,	-1,	23,	34,	-1,	-1,	20,	-1,	-1,	-1,	-1|
-1,	-1,	-1,	-1,	18,	-1,	-1,	-1,	11,	-1,	-1,	-1,	-1,	-1,	-1,	-1,	24,	-1,	33,	-1,	-1,	35,	-1,	-1,	10,	-1,	-1,	-1,	-1,	-1,	-1,	-1,	26,	13,	-1,	23|
-1,	-1,	-1,	9,	-1,	-1,	-1,	-1,	-1,	-1,	16,	-1,	17,	-1,	-1,	-1,	-1,	20,	-1,	-1,	-1,	4,	-1,	36,	-1,	-1,	-1,	-1,	-1,	-1,	-1,	-1,	-1,	-1,	19,	-1|
-1,	-1,	-1,	-1,	-1,	-1,	-1,	-1,	22,	-1,	-1,	-1,	-1,	-1,	23,	-1,	-1,	-1,	-1,	-1,	36,	-1,	-1,	-1,	14,	-1,	32,	-1,	17,	26,	35,	-1,	-1,	11,	-1,	18|
21,	-1,	18,	-1,	27,	22,	-1,	-1,	-1,	32,	-1,	-1,	-1,	-1,	-1,	-1,	-1,	-1,	-1,	-1,	-1,	-1,	-1,	6,	-1,	-1,	-1,	-1,	-1,	-1,	-1,	-1,	-1,	-1,	23,	-1|
-1,	-1,	14,	29,	16,	-1,	-1,	-1,	-1,	-1,	-1,	24,	-1,	-1,	-1,	-1,	-1,	-1,	20,	-1,	2,	-1,	-1,	-1,	-1,	9,	12,	-1,	27,	-1,	-1,	-1,	19,	-1,	-1,	-1|
30,	-1,	6,	-1,	-1,	-1,	14,	-1,	-1,	-1,	11,	-1,	-1,	-1,	10,	-1,	-1,	32,	-1,	-1,	-1,	24,	25,	-1,	-1,	18,	-1,	16,	-1,	-1,	21,	-1,	-1,	-1,	27,	-1|
-1,	12,	-1,	-1,	-1,	-1,	-1,	-1,	-1,	-1,	27,	8,	24,	17,	-1,	-1,	-1,	28,	19,	31,	-1,	9,	-1,	-1,	-1,	4,	-1,	33,	-1,	-1,	-1,	-1,	36,	-1,	32,	30|
36,	-1,	-1,	-1,	-1,	34,	-1,	-1,	-1,	-1,	17,	5,	27,	-1,	20,	-1,	-1,	-1,	-1,	-1,	-1,	-1,	-1,	-1,	-1,	-1,	-1,	-1,	-1,	24,	-1,	-1,	6,	-1,	-1,	-1|
6,	-1,	10,	-1,	-1,	-1,	-1,	-1,	35,	16,	-1,	-1,	-1,	-1,	14,	-1,	-1,	-1,	9,	-1,	4,	-1,	-1,	-1,	-1,	-1,	-1,	-1,	36,	-1,	-1,	19,	-1,	-1,	-1,	-1|
22,	-1,	20,	11,	-1,	-1,	25,	-1,	-1,	-1,	12,	33,	-1,	-1,	-1,	-1,	-1,	36,	-1,	-1,	1,	29,	-1,	-1,	9,	-1,	18,	24,	32,	-1,	-1,	-1,	-1,	10,	4,	-1|
16,	-1,	-1,	-1,	-1,	-1,	-1,	11,	-1,	-1,	26,	-1,	13,	-1,	8,	-1,	-1,	30,	-1,	-1,	-1,	-1,	-1,	23,	-1,	17,	-1,	-1,	-1,	7,	18,	-1,	-1,	-1,	-1,	-1|
18,	-1,	-1,	-1,	-1,	-1,	-1,	-1,	10,	-1,	22,	-1,	-1,	-1,	-1,	-1,	-1,	19,	27,	-1,	-1,	6,	-1,	-1,	-1,	25,	5,	-1,	15,	-1,	14,	-1,	8,	-1,	-1,	11|
27,	-1,	-1,	-1,	-1,	-1,	-1,	19,	18,	-1,	-1,	-1,	-1,	22,	-1,	-1,	-1,	-1,	-1,	-1,	-1,	-1,	-1,	-1,	-1,	-1,	4,	-1,	30,	-1,	-1,	26,	-1,	-1,	36,	16|
-1,	-1,	31,	-1,	-1,	-1,	-1,	-1,	14,	-1,	15,	17,	-1,	-1,	-1,	-1,	3,	-1,	-1,	-1,	13,	11,	-1,	-1,	-1,	-1,	16,	-1,	-1,	-1,	-1,	-1,	-1,	-1,	-1,	-1|
-1,	1,	-1,	23,	-1,	9,	-1,	14,	19,	-1,	21,	-1,	-1,	33,	-1,	-1,	11,	-1,	31,	-1,	-1,	-1,	-1,	-1,	13,	-1,	-1,	-1,	-1,	17,	-1,	-1,	-1,	-1,	-1,	15|
-1,	-1,	27,	-1,	-1,	17,	-1,	-1,	-1,	-1,	-1,	-1,	9,	-1,	-1,	10,	-1,	-1,	-1,	-1,	-1,	33,	-1,	-1,	24,	-1,	36,	-1,	-1,	25,	-1,	14,	-1,	23,	-1,	-1|
-1,	-1,	-1,	-1,	21,	-1,	-1,	23,	25,	-1,	24,	-1,	1,	-1,	35,	34,	20,	26,	-1,	-1,	27,	-1,	32,	-1,	-1,	-1,	-1,	-1,	11,	8,	-1,	9,	-1,	-1,	-1,	22|
-1,	-1,	-1,	-1,	-1,	-1,	-1,	-1,	-1,	26,	-1,	-1,	-1,	-1,	-1,	18,	-1,	-1,	1,	-1,	-1,	-1,	-1,	9,	-1,	-1,	-1,	-1,	-1,	15,	19,	-1,	13,	-1,	-1,	25|
-1,	34,	-1,	25,	13,	-1,	-1,	-1,	-1,	-1,	9,	-1,	-1,	-1,	-1,	-1,	-1,	14,	-1,	19,	-1,	-1,	-1,	-1,	-1,	-1,	1,	31,	-1,	10,	26,	-1,	-1,	33,	-1,	-1|
-1,	33,	-1,	32,	-1,	15,	35,	17,	8,	-1,	29,	-1,	36,	-1,	-1,	-1,	-1,	-1,	-1,	3,	18,	10,	-1,	-1,	16,	-1,	-1,	9,	-1,	34,	24,	-1,	-1,	-1,	-1,	2|
-1,	3,	-1,	-1,	-1,	-1,	26,	1,	29,	-1,	31,	-1,	22,	-1,	6,	14,	-1,	-1,	32,	-1,	-1,	16,	27,	25,	5,	8,	-1,	-1,	-1,	-1,	-1,	-1,	15,	2,	-1,	-1|
-1,	-1,	-1,	22,	-1,	-1,	-1,	-1,	-1,	-1,	-1,	-1,	3,	-1,	-1,	31,	-1,	35,	-1,	-1,	-1,	-1,	-1,	15,	-1,	12,	-1,	-1,	13,	-1,	-1,	-1,	-1,	-1,	-1,	-1|
-1,	-1,	-1,	-1,	29,	4,	-1,	13,	36,	-1,	3,	23,	-1,	-1,	-1,	-1,	-1,	18,	2,	9,	30,	-1,	-1,	-1,	22,	-1,	-1,	-1,	-1,	-1,	-1,	-1,	-1,	-1,	-1,	-1|
-1,	-1,	-1,	-1,	6,	-1,	-1,	-1,	-1,	-1,	35,	21,	-1,	-1,	-1,	27,	-1,	8,	-1,	5,	-1,	-1,	-1,	13,	31,	-1,	-1,	-1,	-1,	-1,	-1,	-1,	3,	1,	-1,	34|
14,	27,	-1,	-1,	-1,	31,	-1,	7,	-1,	-1,	-1,	25,	-1,	-1,	34,	-1,	-1,	5,	12,	-1,	33,	-1,	-1,	-1,	11,	-1,	-1,	-1,	-1,	3,	-1,	-1,	-1,	-1,	21,	-1|
-1,	-1,	34,	-1,	25,	-1,	22,	30,	-1,	24,	8,	-1,	12,	1,	-1,	-1,	15,	-1,	-1,	-1,	-1,	-1,	-1,	19,	-1,	-1,	-1,	-1,	14,	-1,	33,	-1,	-1,	35,	-1,	-1|];
